p cnf 1525 3234
1 0
2 0
3 0
4 0
5 0
6 0
7 0
8 0
9 0
10 0
-11 0
-12 0
-13 0
-14 0
-15 0
-16 0
-17 0
-18 0
-19 0
-20 0
-21 22 0
23 22 0
21 -23 -22 0
1 -22 0
-1 22 0
-24 25 0
26 25 0
24 -26 -25 0
27 -25 0
-27 25 0
-28 29 0
30 29 0
28 -30 -29 0
31 -29 0
-31 29 0
-32 33 0
34 33 0
32 -34 -33 0
35 -33 0
-35 33 0
-36 37 0
38 37 0
36 -38 -37 0
39 -37 0
-39 37 0
-40 41 0
42 41 0
40 -42 -41 0
43 -41 0
-43 41 0
-44 45 0
46 45 0
44 -46 -45 0
47 -45 0
-47 45 0
-48 49 0
50 49 0
48 -50 -49 0
51 -49 0
-51 49 0
-52 53 0
54 53 0
52 -54 -53 0
2 -53 0
-2 53 0
-55 56 0
57 56 0
55 -57 -56 0
58 -56 0
-58 56 0
-59 60 0
61 60 0
59 -61 -60 0
62 -60 0
-62 60 0
-63 64 0
65 64 0
63 -65 -64 0
66 -64 0
-66 64 0
-67 68 0
69 68 0
67 -69 -68 0
70 -68 0
-70 68 0
-71 72 0
73 72 0
71 -73 -72 0
74 -72 0
-74 72 0
-75 76 0
77 76 0
75 -77 -76 0
78 -76 0
-78 76 0
-79 80 0
81 80 0
79 -81 -80 0
82 -80 0
-82 80 0
-83 84 0
85 84 0
83 -85 -84 0
86 -84 0
-86 84 0
-87 88 0
89 88 0
87 -89 -88 0
3 -88 0
-3 88 0
-90 91 0
92 91 0
90 -92 -91 0
93 -91 0
-93 91 0
-94 95 0
96 95 0
94 -96 -95 0
97 -95 0
-97 95 0
-98 99 0
100 99 0
98 -100 -99 0
101 -99 0
-101 99 0
-102 103 0
104 103 0
102 -104 -103 0
105 -103 0
-105 103 0
-106 107 0
108 107 0
106 -108 -107 0
109 -107 0
-109 107 0
-110 111 0
112 111 0
110 -112 -111 0
113 -111 0
-113 111 0
-114 115 0
116 115 0
114 -116 -115 0
117 -115 0
-117 115 0
-118 119 0
120 119 0
118 -120 -119 0
121 -119 0
-121 119 0
-122 123 0
124 123 0
122 -124 -123 0
125 -123 0
-125 123 0
-126 127 0
128 127 0
126 -128 -127 0
129 -127 0
-129 127 0
-130 131 0
132 131 0
130 -132 -131 0
4 -131 0
-4 131 0
-133 134 0
135 134 0
133 -135 -134 0
136 -134 0
-136 134 0
-137 138 0
139 138 0
137 -139 -138 0
140 -138 0
-140 138 0
-141 142 0
143 142 0
141 -143 -142 0
144 -142 0
-144 142 0
-145 146 0
147 146 0
145 -147 -146 0
148 -146 0
-148 146 0
-149 150 0
151 150 0
149 -151 -150 0
152 -150 0
-152 150 0
-153 154 0
155 154 0
153 -155 -154 0
156 -154 0
-156 154 0
-157 158 0
159 158 0
157 -159 -158 0
160 -158 0
-160 158 0
-161 162 0
163 162 0
161 -163 -162 0
164 -162 0
-164 162 0
-165 166 0
167 166 0
165 -167 -166 0
168 -166 0
-168 166 0
-169 170 0
171 170 0
169 -171 -170 0
172 -170 0
-172 170 0
-173 174 0
175 174 0
173 -175 -174 0
5 -174 0
-5 174 0
-176 177 0
178 177 0
176 -178 -177 0
179 -177 0
-179 177 0
-180 181 0
182 181 0
180 -182 -181 0
183 -181 0
-183 181 0
-184 185 0
186 185 0
184 -186 -185 0
187 -185 0
-187 185 0
-188 189 0
190 189 0
188 -190 -189 0
191 -189 0
-191 189 0
-192 193 0
194 193 0
192 -194 -193 0
6 -193 0
-6 193 0
-195 196 0
197 196 0
195 -197 -196 0
7 -196 0
-7 196 0
-198 199 0
200 199 0
198 -200 -199 0
201 -199 0
-201 199 0
-202 203 0
204 203 0
202 -204 -203 0
205 -203 0
-205 203 0
-206 207 0
208 207 0
206 -208 -207 0
209 -207 0
-209 207 0
-210 211 0
212 211 0
210 -212 -211 0
213 -211 0
-213 211 0
-214 215 0
216 215 0
214 -216 -215 0
217 -215 0
-217 215 0
-218 219 0
220 219 0
218 -220 -219 0
8 -219 0
-8 219 0
-221 222 0
223 222 0
221 -223 -222 0
224 -222 0
-224 222 0
-225 226 0
227 226 0
225 -227 -226 0
228 -226 0
-228 226 0
-229 230 0
231 230 0
229 -231 -230 0
232 -230 0
-232 230 0
-233 234 0
235 234 0
233 -235 -234 0
236 -234 0
-236 234 0
-237 238 0
239 238 0
237 -239 -238 0
240 -238 0
-240 238 0
-241 242 0
243 242 0
241 -243 -242 0
244 -242 0
-244 242 0
-245 246 0
247 246 0
245 -247 -246 0
248 -246 0
-248 246 0
-249 250 0
251 250 0
249 -251 -250 0
252 -250 0
-252 250 0
-253 254 0
255 254 0
253 -255 -254 0
256 -254 0
-256 254 0
-257 258 0
259 258 0
257 -259 -258 0
260 -258 0
-260 258 0
-261 262 0
263 262 0
261 -263 -262 0
9 -262 0
-9 262 0
-264 265 0
266 265 0
264 -266 -265 0
267 -265 0
-267 265 0
-268 269 0
270 269 0
268 -270 -269 0
271 -269 0
-271 269 0
-272 273 0
274 273 0
272 -274 -273 0
275 -273 0
-275 273 0
-276 277 0
278 277 0
276 -278 -277 0
279 -277 0
-279 277 0
-280 281 0
282 281 0
280 -282 -281 0
283 -281 0
-283 281 0
-284 285 0
286 285 0
284 -286 -285 0
287 -285 0
-287 285 0
-288 289 0
290 289 0
288 -290 -289 0
291 -289 0
-291 289 0
-292 293 0
294 293 0
292 -294 -293 0
295 -293 0
-295 293 0
-296 297 0
298 297 0
296 -298 -297 0
299 -297 0
-299 297 0
-300 301 0
302 301 0
300 -302 -301 0
303 -301 0
-303 301 0
-304 305 0
306 305 0
304 -306 -305 0
307 -305 0
-307 305 0
-308 309 0
310 309 0
308 -310 -309 0
10 -309 0
-10 309 0
-311 312 0
313 312 0
311 -313 -312 0
314 -312 0
-314 312 0
-315 316 0
317 316 0
315 -317 -316 0
318 -316 0
-318 316 0
-319 320 0
321 320 0
319 -321 -320 0
322 -320 0
-322 320 0
-323 324 0
325 324 0
323 -325 -324 0
326 -324 0
-326 324 0
-327 328 0
329 328 0
327 -329 -328 0
11 -328 0
-11 328 0
-330 331 0
332 331 0
330 -332 -331 0
333 -331 0
-333 331 0
-334 335 0
336 335 0
334 -336 -335 0
337 -335 0
-337 335 0
-338 339 0
340 339 0
338 -340 -339 0
341 -339 0
-341 339 0
-342 343 0
344 343 0
342 -344 -343 0
345 -343 0
-345 343 0
-346 347 0
348 347 0
346 -348 -347 0
349 -347 0
-349 347 0
-350 351 0
352 351 0
350 -352 -351 0
353 -351 0
-353 351 0
-354 355 0
356 355 0
354 -356 -355 0
357 -355 0
-357 355 0
-358 359 0
360 359 0
358 -360 -359 0
361 -359 0
-361 359 0
-362 363 0
364 363 0
362 -364 -363 0
365 -363 0
-365 363 0
-366 367 0
368 367 0
366 -368 -367 0
12 -367 0
-12 367 0
-369 370 0
371 370 0
369 -371 -370 0
372 -370 0
-372 370 0
-373 374 0
375 374 0
373 -375 -374 0
376 -374 0
-376 374 0
-377 378 0
379 378 0
377 -379 -378 0
380 -378 0
-380 378 0
-381 382 0
383 382 0
381 -383 -382 0
384 -382 0
-384 382 0
-385 386 0
387 386 0
385 -387 -386 0
388 -386 0
-388 386 0
-389 390 0
391 390 0
389 -391 -390 0
392 -390 0
-392 390 0
-393 394 0
395 394 0
393 -395 -394 0
396 -394 0
-396 394 0
-397 398 0
399 398 0
397 -399 -398 0
400 -398 0
-400 398 0
-401 402 0
403 402 0
401 -403 -402 0
404 -402 0
-404 402 0
-405 406 0
407 406 0
405 -407 -406 0
408 -406 0
-408 406 0
-409 410 0
411 410 0
409 -411 -410 0
412 -410 0
-412 410 0
-413 414 0
415 414 0
413 -415 -414 0
13 -414 0
-13 414 0
-416 417 0
418 417 0
416 -418 -417 0
419 -417 0
-419 417 0
-420 421 0
422 421 0
420 -422 -421 0
423 -421 0
-423 421 0
-424 425 0
426 425 0
424 -426 -425 0
427 -425 0
-427 425 0
-428 429 0
430 429 0
428 -430 -429 0
431 -429 0
-431 429 0
-432 433 0
434 433 0
432 -434 -433 0
435 -433 0
-435 433 0
-436 437 0
438 437 0
436 -438 -437 0
439 -437 0
-439 437 0
-440 441 0
442 441 0
440 -442 -441 0
14 -441 0
-14 441 0
-443 444 0
445 444 0
443 -445 -444 0
446 -444 0
-446 444 0
-447 448 0
449 448 0
447 -449 -448 0
450 -448 0
-450 448 0
-451 452 0
453 452 0
451 -453 -452 0
454 -452 0
-454 452 0
-455 456 0
457 456 0
455 -457 -456 0
458 -456 0
-458 456 0
-459 460 0
461 460 0
459 -461 -460 0
462 -460 0
-462 460 0
-463 464 0
465 464 0
463 -465 -464 0
466 -464 0
-466 464 0
-467 468 0
469 468 0
467 -469 -468 0
470 -468 0
-470 468 0
-471 472 0
473 472 0
471 -473 -472 0
474 -472 0
-474 472 0
-475 476 0
477 476 0
475 -477 -476 0
478 -476 0
-478 476 0
-479 480 0
481 480 0
479 -481 -480 0
15 -480 0
-15 480 0
-482 483 0
484 483 0
482 -484 -483 0
485 -483 0
-485 483 0
-486 487 0
488 487 0
486 -488 -487 0
489 -487 0
-489 487 0
-490 491 0
492 491 0
490 -492 -491 0
493 -491 0
-493 491 0
-494 495 0
496 495 0
494 -496 -495 0
497 -495 0
-497 495 0
-498 499 0
500 499 0
498 -500 -499 0
501 -499 0
-501 499 0
-502 503 0
504 503 0
502 -504 -503 0
505 -503 0
-505 503 0
-506 507 0
508 507 0
506 -508 -507 0
509 -507 0
-509 507 0
-510 511 0
512 511 0
510 -512 -511 0
513 -511 0
-513 511 0
-514 515 0
516 515 0
514 -516 -515 0
517 -515 0
-517 515 0
-518 519 0
520 519 0
518 -520 -519 0
521 -519 0
-521 519 0
-522 523 0
524 523 0
522 -524 -523 0
16 -523 0
-16 523 0
-525 526 0
527 526 0
525 -527 -526 0
528 -526 0
-528 526 0
-529 530 0
531 530 0
529 -531 -530 0
532 -530 0
-532 530 0
-533 534 0
535 534 0
533 -535 -534 0
536 -534 0
-536 534 0
-537 538 0
539 538 0
537 -539 -538 0
540 -538 0
-540 538 0
-541 542 0
543 542 0
541 -543 -542 0
544 -542 0
-544 542 0
-545 546 0
547 546 0
545 -547 -546 0
548 -546 0
-548 546 0
-549 550 0
551 550 0
549 -551 -550 0
552 -550 0
-552 550 0
-553 554 0
555 554 0
553 -555 -554 0
17 -554 0
-17 554 0
-556 557 0
558 557 0
556 -558 -557 0
559 -557 0
-559 557 0
-560 561 0
562 561 0
560 -562 -561 0
563 -561 0
-563 561 0
-564 565 0
566 565 0
564 -566 -565 0
567 -565 0
-567 565 0
-568 569 0
570 569 0
568 -570 -569 0
571 -569 0
-571 569 0
-572 573 0
574 573 0
572 -574 -573 0
575 -573 0
-575 573 0
-576 577 0
578 577 0
576 -578 -577 0
579 -577 0
-579 577 0
-580 581 0
582 581 0
580 -582 -581 0
583 -581 0
-583 581 0
-584 585 0
586 585 0
584 -586 -585 0
587 -585 0
-587 585 0
-588 589 0
590 589 0
588 -590 -589 0
591 -589 0
-591 589 0
-592 593 0
594 593 0
592 -594 -593 0
595 -593 0
-595 593 0
-596 597 0
598 597 0
596 -598 -597 0
599 -597 0
-599 597 0
-600 601 0
602 601 0
600 -602 -601 0
18 -601 0
-18 601 0
-603 604 0
605 604 0
603 -605 -604 0
606 -604 0
-606 604 0
-607 608 0
609 608 0
607 -609 -608 0
610 -608 0
-610 608 0
-611 612 0
613 612 0
611 -613 -612 0
614 -612 0
-614 612 0
-615 616 0
617 616 0
615 -617 -616 0
618 -616 0
-618 616 0
-619 620 0
621 620 0
619 -621 -620 0
622 -620 0
-622 620 0
-623 624 0
625 624 0
623 -625 -624 0
626 -624 0
-626 624 0
-627 628 0
629 628 0
627 -629 -628 0
630 -628 0
-630 628 0
-631 632 0
633 632 0
631 -633 -632 0
634 -632 0
-634 632 0
-635 636 0
637 636 0
635 -637 -636 0
638 -636 0
-638 636 0
-639 640 0
641 640 0
639 -641 -640 0
642 -640 0
-642 640 0
-643 644 0
645 644 0
643 -645 -644 0
19 -644 0
-19 644 0
-646 647 0
648 647 0
646 -648 -647 0
649 -647 0
-649 647 0
-650 651 0
652 651 0
650 -652 -651 0
653 -651 0
-653 651 0
-654 655 0
656 655 0
654 -656 -655 0
657 -655 0
-657 655 0
-658 659 0
660 659 0
658 -660 -659 0
661 -659 0
-661 659 0
-662 663 0
664 663 0
662 -664 -663 0
665 -663 0
-665 663 0
-666 667 0
668 667 0
666 -668 -667 0
669 -667 0
-669 667 0
-670 671 0
672 671 0
670 -672 -671 0
673 -671 0
-673 671 0
-674 675 0
676 675 0
674 -676 -675 0
677 -675 0
-677 675 0
-678 679 0
680 679 0
678 -680 -679 0
20 -679 0
-20 679 0
-681 682 0
683 682 0
681 -683 -682 0
684 -682 0
-684 682 0
-685 686 0
687 686 0
685 -687 -686 0
688 -686 0
-688 686 0
-689 690 0
691 690 0
689 -691 -690 0
692 -690 0
-692 690 0
-693 694 0
695 694 0
693 -695 -694 0
696 -694 0
-696 694 0
-697 698 0
699 698 0
697 -699 -698 0
700 -698 0
-700 698 0
-701 702 0
703 702 0
701 -703 -702 0
704 -702 0
-704 702 0
-705 706 0
707 706 0
705 -707 -706 0
708 -706 0
-708 706 0
-709 710 0
711 710 0
709 -711 -710 0
712 -710 0
-712 710 0
-713 714 0
715 714 0
713 -715 -714 0
716 -714 0
-716 714 0
-717 718 0
-719 -24 718 0
717 719 -718 0
24 717 -718 0
21 -718 0
-21 718 0
-720 721 0
-28 -722 721 0
28 720 -721 0
720 722 -721 0
24 -721 0
-24 721 0
-723 724 0
-32 -725 724 0
32 723 -724 0
723 725 -724 0
28 -724 0
-28 724 0
-726 727 0
-36 -728 727 0
36 726 -727 0
726 728 -727 0
32 -727 0
-32 727 0
-729 730 0
-40 -731 730 0
40 729 -730 0
729 731 -730 0
36 -730 0
-36 730 0
-732 733 0
-44 -734 733 0
44 732 -733 0
732 734 -733 0
40 -733 0
-40 733 0
-735 736 0
-737 -48 736 0
735 737 -736 0
48 735 -736 0
44 -736 0
-44 736 0
738 739 0
735 739 0
728 739 0
731 739 0
734 739 0
-740 0
-741 742 0
-738 -726 742 0
-738 -729 -728 742 0
-738 -732 -728 -731 742 0
739 742 0
741 738 -739 -742 0
726 741 738 -739 -742 0
729 741 738 -739 -742 0
726 729 741 738 -739 -742 0
728 741 738 -739 -742 0
726 728 741 738 -739 -742 0
732 741 738 -739 -742 0
726 732 741 738 -739 -742 0
729 732 741 738 -739 -742 0
726 729 732 741 -739 -742 0
728 732 741 738 -739 -742 0
726 728 732 741 -739 -742 0
728 729 741 738 -739 -742 0
726 728 729 741 -739 -742 0
726 728 741 -739 -742 0
731 741 738 -739 -742 0
726 731 741 738 -739 -742 0
729 731 741 738 -739 -742 0
726 729 731 741 -739 -742 0
728 731 741 738 -739 -742 0
726 728 731 741 -739 -742 0
48 -742 0
-48 742 0
-743 744 0
-55 -745 744 0
55 743 -744 0
743 745 -744 0
52 -744 0
-52 744 0
-746 747 0
-59 -748 747 0
59 746 -747 0
746 748 -747 0
55 -747 0
-55 747 0
-749 750 0
-63 -751 750 0
63 749 -750 0
749 751 -750 0
59 -750 0
-59 750 0
-752 753 0
-754 -67 753 0
752 754 -753 0
67 752 -753 0
63 -753 0
-63 753 0
-755 756 0
-757 -71 756 0
755 757 -756 0
71 755 -756 0
67 -756 0
-67 756 0
-758 759 0
-75 -760 759 0
75 758 -759 0
758 760 -759 0
71 -759 0
-71 759 0
-761 762 0
-763 -79 762 0
761 763 -762 0
79 761 -762 0
75 -762 0
-75 762 0
-764 765 0
-766 -83 765 0
764 766 -765 0
83 764 -765 0
79 -765 0
-79 765 0
757 767 0
763 767 0
764 767 0
760 767 0
768 767 0
-769 0
-770 771 0
-755 -768 771 0
-757 -758 -768 771 0
-772 0
767 771 0
755 757 770 -767 -771 0
757 770 768 -767 -771 0
755 757 758 770 -767 -771 0
757 758 770 768 -767 -771 0
755 757 770 768 -767 -771 0
755 757 761 770 -767 -771 0
757 761 770 768 -767 -771 0
755 758 761 770 -767 -771 0
758 761 770 768 -767 -771 0
755 761 770 768 -767 -771 0
761 770 768 -767 -771 0
755 757 760 770 -767 -771 0
757 760 770 768 -767 -771 0
755 758 760 770 -767 -771 0
758 760 770 768 -767 -771 0
755 760 770 768 -767 -771 0
760 770 768 -767 -771 0
755 758 770 768 -767 -771 0
758 770 768 -767 -771 0
755 770 768 -767 -771 0
770 768 -767 -771 0
83 -771 0
-83 771 0
-773 774 0
-775 -90 774 0
773 775 -774 0
90 773 -774 0
87 -774 0
-87 774 0
-776 777 0
-94 -778 777 0
94 776 -777 0
776 778 -777 0
90 -777 0
-90 777 0
-779 780 0
-98 -781 780 0
98 779 -780 0
779 781 -780 0
94 -780 0
-94 780 0
-782 783 0
-102 -784 783 0
102 782 -783 0
782 784 -783 0
98 -783 0
-98 783 0
-785 786 0
-106 -787 786 0
106 785 -786 0
785 787 -786 0
102 -786 0
-102 786 0
-788 789 0
-110 -790 789 0
110 788 -789 0
788 790 -789 0
106 -789 0
-106 789 0
-791 792 0
-793 -114 792 0
791 793 -792 0
114 791 -792 0
110 -792 0
-110 792 0
-794 795 0
-796 -118 795 0
794 796 -795 0
118 794 -795 0
114 -795 0
-114 795 0
-797 798 0
-799 -122 798 0
797 799 -798 0
122 797 -798 0
118 -798 0
-118 798 0
-800 801 0
-126 -802 801 0
126 800 -801 0
800 802 -801 0
122 -801 0
-122 801 0
793 803 0
796 803 0
799 803 0
804 803 0
800 803 0
790 803 0
-805 0
793 806 0
796 806 0
804 806 0
797 806 0
790 806 0
-807 0
-808 809 0
-804 -788 809 0
-804 -791 -790 809 0
-810 0
806 809 0
803 809 0
811 0
812 0
813 0
814 0
815 0
816 0
808 804 -803 -806 -809 0
817 0
818 0
819 0
820 0
821 0
822 0
823 0
824 0
825 0
826 0
827 0
828 0
829 0
830 0
126 -809 0
-126 809 0
-831 832 0
-133 -833 832 0
133 831 -832 0
831 833 -832 0
130 -832 0
-130 832 0
-834 835 0
-836 -137 835 0
834 836 -835 0
137 834 -835 0
133 -835 0
-133 835 0
-837 838 0
-839 -141 838 0
837 839 -838 0
141 837 -838 0
137 -838 0
-137 838 0
-840 841 0
-842 -145 841 0
840 842 -841 0
145 840 -841 0
141 -841 0
-141 841 0
-843 844 0
-149 -845 844 0
149 843 -844 0
843 845 -844 0
145 -844 0
-145 844 0
-846 847 0
-848 -153 847 0
846 848 -847 0
153 846 -847 0
149 -847 0
-149 847 0
-849 850 0
-851 -157 850 0
849 851 -850 0
157 849 -850 0
153 -850 0
-153 850 0
-852 853 0
-854 -161 853 0
852 854 -853 0
161 852 -853 0
157 -853 0
-157 853 0
-855 856 0
-165 -857 856 0
165 855 -856 0
855 857 -856 0
161 -856 0
-161 856 0
-858 859 0
-169 -860 859 0
169 858 -859 0
858 860 -859 0
165 -859 0
-165 859 0
848 861 0
851 861 0
854 861 0
862 861 0
858 861 0
857 861 0
-863 0
848 864 0
851 864 0
854 864 0
862 864 0
855 864 0
-865 0
-866 867 0
-862 -846 867 0
-848 -862 -849 867 0
-868 0
864 867 0
861 867 0
869 0
870 0
871 0
872 0
873 0
874 0
875 0
876 0
877 0
878 0
879 0
866 862 -861 -864 -867 0
880 0
881 0
882 0
883 0
884 0
885 0
886 0
887 0
888 0
169 -867 0
-169 867 0
-889 890 0
-891 -176 890 0
889 891 -890 0
176 889 -890 0
173 -890 0
-173 890 0
-892 893 0
-180 -894 893 0
180 892 -893 0
892 894 -893 0
176 -893 0
-176 893 0
-895 896 0
-897 -184 896 0
895 897 -896 0
184 895 -896 0
180 -896 0
-180 896 0
-898 899 0
-188 -900 899 0
188 898 -899 0
898 900 -899 0
184 -899 0
-184 899 0
-901 902 0
-892 -903 902 0
-895 -894 -903 902 0
-904 0
892 895 897 901 -902 0
895 897 901 903 -902 0
892 894 897 901 -902 0
894 897 901 903 -902 0
892 897 901 903 -902 0
897 901 903 -902 0
892 895 898 901 -902 0
895 898 901 903 -902 0
892 894 898 901 -902 0
894 898 901 903 -902 0
892 898 901 903 -902 0
898 901 903 -902 0
892 894 895 901 -902 0
894 895 901 903 -902 0
892 894 901 -902 0
894 901 903 -902 0
892 894 901 903 -902 0
892 895 901 903 -902 0
895 901 903 -902 0
892 901 903 -902 0
901 903 -902 0
188 -902 0
-188 902 0
-905 906 0
-118 -907 906 0
118 905 -906 0
905 907 -906 0
192 -906 0
-192 906 0
-908 909 0
-910 -198 909 0
908 910 -909 0
198 908 -909 0
195 -909 0
-195 909 0
-911 912 0
-202 -913 912 0
202 911 -912 0
911 913 -912 0
198 -912 0
-198 912 0
-914 915 0
-206 -916 915 0
206 914 -915 0
914 916 -915 0
202 -915 0
-202 915 0
-917 918 0
-210 -919 918 0
210 917 -918 0
917 919 -918 0
206 -918 0
-206 918 0
-920 921 0
-214 -922 921 0
214 920 -921 0
920 922 -921 0
210 -921 0
-210 921 0
-923 924 0
-48 -925 924 0
48 923 -924 0
923 925 -924 0
214 -924 0
-214 924 0
-926 927 0
-221 -928 927 0
221 926 -927 0
926 928 -927 0
218 -927 0
-218 927 0
-929 930 0
-931 -225 930 0
929 931 -930 0
225 929 -930 0
221 -930 0
-221 930 0
-932 933 0
-934 -229 933 0
932 934 -933 0
229 932 -933 0
225 -933 0
-225 933 0
-935 936 0
-937 -233 936 0
935 937 -936 0
233 935 -936 0
229 -936 0
-229 936 0
-938 939 0
-940 -237 939 0
938 940 -939 0
237 938 -939 0
233 -939 0
-233 939 0
-941 942 0
-241 -943 942 0
241 941 -942 0
941 943 -942 0
237 -942 0
-237 942 0
-944 945 0
-245 -946 945 0
245 944 -945 0
944 946 -945 0
241 -945 0
-241 945 0
-947 948 0
-949 -249 948 0
947 949 -948 0
249 947 -948 0
245 -948 0
-245 948 0
-950 951 0
-952 -253 951 0
950 952 -951 0
253 950 -951 0
249 -951 0
-249 951 0
-953 954 0
-955 -257 954 0
953 955 -954 0
257 953 -954 0
253 -954 0
-253 954 0
949 956 0
952 956 0
957 956 0
953 956 0
946 956 0
-958 0
-959 960 0
-957 -944 960 0
-957 -947 -946 960 0
-961 0
956 960 0
949 959 957 -956 -960 0
944 949 959 957 -956 -960 0
947 949 959 957 -956 -960 0
944 947 949 959 -956 -960 0
946 949 959 957 -956 -960 0
944 946 949 959 -956 -960 0
959 957 -956 -960 0
944 959 957 -956 -960 0
947 959 957 -956 -960 0
944 947 959 957 -956 -960 0
946 959 957 -956 -960 0
944 946 959 957 -956 -960 0
950 959 957 -956 -960 0
944 950 959 957 -956 -960 0
947 950 959 957 -956 -960 0
944 947 950 959 -956 -960 0
946 950 959 957 -956 -960 0
944 946 950 959 -956 -960 0
946 947 959 957 -956 -960 0
944 946 947 959 -956 -960 0
944 946 959 -956 -960 0
257 -960 0
-257 960 0
-962 963 0
-964 -264 963 0
962 964 -963 0
264 962 -963 0
261 -963 0
-261 963 0
-965 966 0
-967 -268 966 0
965 967 -966 0
268 965 -966 0
264 -966 0
-264 966 0
-968 969 0
-272 -970 969 0
272 968 -969 0
968 970 -969 0
268 -969 0
-268 969 0
-971 972 0
-276 -973 972 0
276 971 -972 0
971 973 -972 0
272 -972 0
-272 972 0
-974 975 0
-976 -280 975 0
974 976 -975 0
280 974 -975 0
276 -975 0
-276 975 0
-977 978 0
-979 -284 978 0
977 979 -978 0
284 977 -978 0
280 -978 0
-280 978 0
-980 981 0
-982 -288 981 0
980 982 -981 0
288 980 -981 0
284 -981 0
-284 981 0
-983 984 0
-292 -985 984 0
292 983 -984 0
983 985 -984 0
288 -984 0
-288 984 0
-986 987 0
-988 -296 987 0
986 988 -987 0
296 986 -987 0
292 -987 0
-292 987 0
-989 990 0
-300 -991 990 0
300 989 -990 0
989 991 -990 0
296 -990 0
-296 990 0
-992 993 0
-304 -994 993 0
304 992 -993 0
992 994 -993 0
300 -993 0
-300 993 0
982 995 0
988 995 0
992 995 0
985 995 0
991 995 0
996 995 0
-997 0
982 998 0
988 998 0
989 998 0
985 998 0
996 998 0
-999 0
-1000 1001 0
-980 -996 1001 0
-982 -983 -996 1001 0
-1002 0
998 1001 0
995 1001 0
1003 0
1004 0
1005 0
1006 0
1007 0
1008 0
1009 0
1010 0
1011 0
1012 0
1013 0
1014 0
1015 0
1016 0
1017 0
1018 0
1019 0
1020 0
1021 0
1022 0
1000 996 -995 -998 -1001 0
304 -1001 0
-304 1001 0
-1023 1024 0
-1025 -311 1024 0
1023 1025 -1024 0
311 1023 -1024 0
308 -1024 0
-308 1024 0
-1026 1027 0
-315 -1028 1027 0
315 1026 -1027 0
1026 1028 -1027 0
311 -1027 0
-311 1027 0
-1029 1030 0
-319 -1031 1030 0
319 1029 -1030 0
1029 1031 -1030 0
315 -1030 0
-315 1030 0
-1032 1033 0
-323 -1034 1033 0
323 1032 -1033 0
1032 1034 -1033 0
319 -1033 0
-319 1033 0
-1035 1036 0
-184 -1037 1036 0
184 1035 -1036 0
1035 1037 -1036 0
323 -1036 0
-323 1036 0
-1038 1039 0
-1040 -330 1039 0
1038 1040 -1039 0
330 1038 -1039 0
327 -1039 0
-327 1039 0
-1041 1042 0
-334 -1043 1042 0
334 1041 -1042 0
1041 1043 -1042 0
330 -1042 0
-330 1042 0
-1044 1045 0
-1046 -338 1045 0
1044 1046 -1045 0
338 1044 -1045 0
334 -1045 0
-334 1045 0
-1047 1048 0
-1049 -342 1048 0
1047 1049 -1048 0
342 1047 -1048 0
338 -1048 0
-338 1048 0
-1050 1051 0
-1052 -346 1051 0
1050 1052 -1051 0
346 1050 -1051 0
342 -1051 0
-342 1051 0
-1053 1054 0
-350 -1055 1054 0
350 1053 -1054 0
1053 1055 -1054 0
346 -1054 0
-346 1054 0
-1056 1057 0
-354 -1058 1057 0
354 1056 -1057 0
1056 1058 -1057 0
350 -1057 0
-350 1057 0
-1059 1060 0
-358 -1061 1060 0
358 1059 -1060 0
1059 1061 -1060 0
354 -1060 0
-354 1060 0
-1062 1063 0
-362 -1064 1063 0
362 1062 -1063 0
1062 1064 -1063 0
358 -1063 0
-358 1063 0
1052 1065 0
1066 1065 0
1062 1065 0
1055 1065 0
1058 1065 0
1061 1065 0
-1067 0
1052 1068 0
1066 1068 0
1059 1068 0
1055 1068 0
1058 1068 0
-1069 0
-1070 1071 0
-1066 -1050 1071 0
-1052 -1066 -1053 1071 0
-1072 0
1068 1071 0
1065 1071 0
1073 0
1074 0
1075 0
1076 0
1077 0
1070 1066 -1065 -1068 -1071 0
1078 0
1079 0
1080 0
1081 0
1082 0
1083 0
1084 0
1085 0
1086 0
1087 0
1088 0
1089 0
1090 0
1091 0
1092 0
362 -1071 0
-362 1071 0
-1093 1094 0
-369 -1095 1094 0
369 1093 -1094 0
1093 1095 -1094 0
366 -1094 0
-366 1094 0
-1096 1097 0
-373 -1098 1097 0
373 1096 -1097 0
1096 1098 -1097 0
369 -1097 0
-369 1097 0
-1099 1100 0
-1101 -377 1100 0
1099 1101 -1100 0
377 1099 -1100 0
373 -1100 0
-373 1100 0
-1102 1103 0
-1104 -381 1103 0
1102 1104 -1103 0
381 1102 -1103 0
377 -1103 0
-377 1103 0
-1105 1106 0
-1107 -385 1106 0
1105 1107 -1106 0
385 1105 -1106 0
381 -1106 0
-381 1106 0
-1108 1109 0
-1110 -389 1109 0
1108 1110 -1109 0
389 1108 -1109 0
385 -1109 0
-385 1109 0
-1111 1112 0
-1113 -393 1112 0
1111 1113 -1112 0
393 1111 -1112 0
389 -1112 0
-389 1112 0
-1114 1115 0
-397 -1116 1115 0
397 1114 -1115 0
1114 1116 -1115 0
393 -1115 0
-393 1115 0
-1117 1118 0
-401 -1119 1118 0
401 1117 -1118 0
1117 1119 -1118 0
397 -1118 0
-397 1118 0
-1120 1121 0
-405 -1122 1121 0
405 1120 -1121 0
1120 1122 -1121 0
401 -1121 0
-401 1121 0
-1123 1124 0
-1125 -409 1124 0
1123 1125 -1124 0
409 1123 -1124 0
405 -1124 0
-405 1124 0
1113 1126 0
1116 1126 0
1119 1126 0
1122 1126 0
1127 1126 0
1123 1126 0
-1128 0
1113 1129 0
1116 1129 0
1119 1129 0
1127 1129 0
1120 1129 0
-1130 0
-1131 1132 0
-1111 -1127 1132 0
-1113 -1127 -1114 1132 0
-1133 0
1129 1132 0
1126 1132 0
1134 0
1135 0
1136 0
1137 0
1138 0
1139 0
1140 0
1141 0
1142 0
1143 0
1144 0
1145 0
1131 1127 -1126 -1129 -1132 0
1146 0
1147 0
1148 0
1149 0
1150 0
1151 0
1152 0
1153 0
409 -1132 0
-409 1132 0
-1154 1155 0
-416 -1156 1155 0
416 1154 -1155 0
1154 1156 -1155 0
413 -1155 0
-413 1155 0
-1157 1158 0
-420 -1159 1158 0
420 1157 -1158 0
1157 1159 -1158 0
416 -1158 0
-416 1158 0
-1160 1161 0
-1162 -424 1161 0
1160 1162 -1161 0
424 1160 -1161 0
420 -1161 0
-420 1161 0
-1163 1164 0
-1165 -428 1164 0
1163 1165 -1164 0
428 1163 -1164 0
424 -1164 0
-424 1164 0
-1166 1167 0
-1168 -432 1167 0
1166 1168 -1167 0
432 1166 -1167 0
428 -1167 0
-428 1167 0
-1169 1170 0
-436 -1171 1170 0
436 1169 -1170 0
1169 1171 -1170 0
432 -1170 0
-432 1170 0
-1172 1173 0
-1163 -1174 1173 0
-1165 -1174 -1166 1173 0
-1175 0
1163 1165 1172 -1173 0
1165 1172 1174 -1173 0
1163 1165 1172 1174 -1173 0
1163 1165 1166 1172 -1173 0
1165 1166 1172 1174 -1173 0
1163 1165 1168 1172 -1173 0
1165 1168 1172 1174 -1173 0
1163 1168 1172 1174 -1173 0
1168 1172 1174 -1173 0
1163 1166 1168 1172 -1173 0
1166 1168 1172 1174 -1173 0
1163 1172 1174 -1173 0
1172 1174 -1173 0
1163 1166 1172 1174 -1173 0
1166 1172 1174 -1173 0
1163 1165 1169 1172 -1173 0
1165 1169 1172 1174 -1173 0
1163 1169 1172 1174 -1173 0
1169 1172 1174 -1173 0
1163 1166 1169 1172 -1173 0
1166 1169 1172 1174 -1173 0
436 -1173 0
-436 1173 0
-1176 1177 0
-443 -1178 1177 0
443 1176 -1177 0
1176 1178 -1177 0
440 -1177 0
-440 1177 0
-1179 1180 0
-447 -1181 1180 0
447 1179 -1180 0
1179 1181 -1180 0
443 -1180 0
-443 1180 0
-1182 1183 0
-451 -1184 1183 0
451 1182 -1183 0
1182 1184 -1183 0
447 -1183 0
-447 1183 0
-1185 1186 0
-1187 -455 1186 0
1185 1187 -1186 0
455 1185 -1186 0
451 -1186 0
-451 1186 0
-1188 1189 0
-459 -1190 1189 0
459 1188 -1189 0
1188 1190 -1189 0
455 -1189 0
-455 1189 0
-1191 1192 0
-1193 -463 1192 0
1191 1193 -1192 0
463 1191 -1192 0
459 -1192 0
-459 1192 0
-1194 1195 0
-467 -1196 1195 0
467 1194 -1195 0
1194 1196 -1195 0
463 -1195 0
-463 1195 0
-1197 1198 0
-471 -1199 1198 0
471 1197 -1198 0
1197 1199 -1198 0
467 -1198 0
-467 1198 0
-1200 1201 0
-475 -1202 1201 0
475 1200 -1201 0
1200 1202 -1201 0
471 -1201 0
-471 1201 0
-1203 1204 0
-1194 -1205 1204 0
-1196 -1205 -1197 1204 0
-1206 0
1194 1196 1200 1203 -1204 0
1196 1200 1203 1205 -1204 0
1194 1200 1203 1205 -1204 0
1200 1203 1205 -1204 0
1194 1197 1200 1203 -1204 0
1197 1200 1203 1205 -1204 0
1194 1196 1203 -1204 0
1196 1203 1205 -1204 0
1194 1196 1203 1205 -1204 0
1194 1196 1197 1203 -1204 0
1196 1197 1203 1205 -1204 0
1194 1196 1199 1203 -1204 0
1196 1199 1203 1205 -1204 0
1194 1199 1203 1205 -1204 0
1199 1203 1205 -1204 0
1194 1197 1199 1203 -1204 0
1197 1199 1203 1205 -1204 0
1194 1203 1205 -1204 0
1203 1205 -1204 0
1194 1197 1203 1205 -1204 0
1197 1203 1205 -1204 0
475 -1204 0
-475 1204 0
-1207 1208 0
-1209 -482 1208 0
1207 1209 -1208 0
482 1207 -1208 0
479 -1208 0
-479 1208 0
-1210 1211 0
-486 -1212 1211 0
486 1210 -1211 0
1210 1212 -1211 0
482 -1211 0
-482 1211 0
-1213 1214 0
-1215 -490 1214 0
1213 1215 -1214 0
490 1213 -1214 0
486 -1214 0
-486 1214 0
-1216 1217 0
-1218 -494 1217 0
1216 1218 -1217 0
494 1216 -1217 0
490 -1217 0
-490 1217 0
-1219 1220 0
-498 -1221 1220 0
498 1219 -1220 0
1219 1221 -1220 0
494 -1220 0
-494 1220 0
-1222 1223 0
-1224 -502 1223 0
1222 1224 -1223 0
502 1222 -1223 0
498 -1223 0
-498 1223 0
-1225 1226 0
-1227 -506 1226 0
1225 1227 -1226 0
506 1225 -1226 0
502 -1226 0
-502 1226 0
-1228 1229 0
-1230 -510 1229 0
1228 1230 -1229 0
510 1228 -1229 0
506 -1229 0
-506 1229 0
-1231 1232 0
-514 -1233 1232 0
514 1231 -1232 0
1231 1233 -1232 0
510 -1232 0
-510 1232 0
-1234 1235 0
-518 -1236 1235 0
518 1234 -1235 0
1234 1236 -1235 0
514 -1235 0
-514 1235 0
1224 1237 0
1227 1237 0
1230 1237 0
1234 1237 0
1233 1237 0
1238 1237 0
-1239 0
1224 1240 0
1227 1240 0
1230 1240 0
1231 1240 0
1238 1240 0
-1241 0
-1242 1243 0
-1222 -1238 1243 0
-1224 -1225 -1238 1243 0
-1244 0
1240 1243 0
1237 1243 0
1245 0
1246 0
1247 0
1248 0
1249 0
1250 0
1251 0
1252 0
1253 0
1254 0
1255 0
1256 0
1257 0
1258 0
1242 1238 -1237 -1240 -1243 0
1259 0
1260 0
1261 0
1262 0
1263 0
1264 0
518 -1243 0
-518 1243 0
-1265 1266 0
-1267 -525 1266 0
1265 1267 -1266 0
525 1265 -1266 0
522 -1266 0
-522 1266 0
-1268 1269 0
-1270 -529 1269 0
1268 1270 -1269 0
529 1268 -1269 0
525 -1269 0
-525 1269 0
-1271 1272 0
-533 -1273 1272 0
533 1271 -1272 0
1271 1273 -1272 0
529 -1272 0
-529 1272 0
-1274 1275 0
-537 -1276 1275 0
537 1274 -1275 0
1274 1276 -1275 0
533 -1275 0
-533 1275 0
-1277 1278 0
-1279 -541 1278 0
1277 1279 -1278 0
541 1277 -1278 0
537 -1278 0
-537 1278 0
-1280 1281 0
-1282 -545 1281 0
1280 1282 -1281 0
545 1280 -1281 0
541 -1281 0
-541 1281 0
-1283 1284 0
-1285 -549 1284 0
1283 1285 -1284 0
549 1283 -1284 0
545 -1284 0
-545 1284 0
1279 1286 0
1282 1286 0
1283 1286 0
1276 1286 0
1287 1286 0
-1288 0
-1289 1290 0
-1274 -1287 1290 0
-1277 -1276 -1287 1290 0
-1291 0
1286 1290 0
1292 0
1293 0
1294 0
1295 0
1296 0
1279 1289 1287 -1286 -1290 0
1297 0
1298 0
1299 0
1300 0
1301 0
1280 1289 1287 -1286 -1290 0
1302 0
1303 0
1274 1276 1289 -1286 -1290 0
1276 1289 1287 -1286 -1290 0
1304 0
1305 0
1277 1289 1287 -1286 -1290 0
1274 1289 1287 -1286 -1290 0
1289 1287 -1286 -1290 0
549 -1290 0
-549 1290 0
-1306 1307 0
-1308 -556 1307 0
1306 1308 -1307 0
556 1306 -1307 0
553 -1307 0
-553 1307 0
-1309 1310 0
-560 -1311 1310 0
560 1309 -1310 0
1309 1311 -1310 0
556 -1310 0
-556 1310 0
-1312 1313 0
-564 -1314 1313 0
564 1312 -1313 0
1312 1314 -1313 0
560 -1313 0
-560 1313 0
-1315 1316 0
-568 -1317 1316 0
568 1315 -1316 0
1315 1317 -1316 0
564 -1316 0
-564 1316 0
-1318 1319 0
-1320 -572 1319 0
1318 1320 -1319 0
572 1318 -1319 0
568 -1319 0
-568 1319 0
-1321 1322 0
-576 -1323 1322 0
576 1321 -1322 0
1321 1323 -1322 0
572 -1322 0
-572 1322 0
-1324 1325 0
-1326 -580 1325 0
1324 1326 -1325 0
580 1324 -1325 0
576 -1325 0
-576 1325 0
-1327 1328 0
-1329 -584 1328 0
1327 1329 -1328 0
584 1327 -1328 0
580 -1328 0
-580 1328 0
-1330 1331 0
-588 -1332 1331 0
588 1330 -1331 0
1330 1332 -1331 0
584 -1331 0
-584 1331 0
-1333 1334 0
-1335 -592 1334 0
1333 1335 -1334 0
592 1333 -1334 0
588 -1334 0
-588 1334 0
-1336 1337 0
-1338 -596 1337 0
1336 1338 -1337 0
596 1336 -1337 0
592 -1337 0
-592 1337 0
1326 1339 0
1329 1339 0
1335 1339 0
1340 1339 0
1332 1339 0
1336 1339 0
-1341 0
1326 1342 0
1329 1342 0
1340 1342 0
1332 1342 0
1333 1342 0
-1343 0
-1344 1345 0
-1340 -1324 1345 0
-1326 -1340 -1327 1345 0
-1346 0
1342 1345 0
1339 1345 0
1347 0
1348 0
1349 0
1350 0
1351 0
1352 0
1353 0
1354 0
1355 0
1356 0
1357 0
1344 1340 -1339 -1342 -1345 0
1358 0
1359 0
1360 0
1361 0
1362 0
1363 0
1364 0
1365 0
1366 0
596 -1345 0
-596 1345 0
-1367 1368 0
-1369 -603 1368 0
1367 1369 -1368 0
603 1367 -1368 0
600 -1368 0
-600 1368 0
-1370 1371 0
-1372 -607 1371 0
1370 1372 -1371 0
607 1370 -1371 0
603 -1371 0
-603 1371 0
-1373 1374 0
-1375 -611 1374 0
1373 1375 -1374 0
611 1373 -1374 0
607 -1374 0
-607 1374 0
-1376 1377 0
-615 -1378 1377 0
615 1376 -1377 0
1376 1378 -1377 0
611 -1377 0
-611 1377 0
-1379 1380 0
-1381 -619 1380 0
1379 1381 -1380 0
619 1379 -1380 0
615 -1380 0
-615 1380 0
-1382 1383 0
-1384 -623 1383 0
1382 1384 -1383 0
623 1382 -1383 0
619 -1383 0
-619 1383 0
-1385 1386 0
-627 -1387 1386 0
627 1385 -1386 0
1385 1387 -1386 0
623 -1386 0
-623 1386 0
-1388 1389 0
-1390 -631 1389 0
1388 1390 -1389 0
631 1388 -1389 0
627 -1389 0
-627 1389 0
-1391 1392 0
-1393 -635 1392 0
1391 1393 -1392 0
635 1391 -1392 0
631 -1392 0
-631 1392 0
-1394 1395 0
-1396 -639 1395 0
1394 1396 -1395 0
639 1394 -1395 0
635 -1395 0
-635 1395 0
1384 1397 0
1390 1397 0
1393 1397 0
1387 1397 0
1398 1397 0
1394 1397 0
-1399 0
1384 1400 0
1390 1400 0
1387 1400 0
1398 1400 0
1391 1400 0
-1401 0
-1402 1403 0
-1382 -1398 1403 0
-1384 -1398 -1385 1403 0
-1404 0
1400 1403 0
1397 1403 0
1405 0
1406 0
1407 0
1408 0
1409 0
1410 0
1411 0
1412 0
1413 0
1414 0
1415 0
1416 0
1402 1398 -1397 -1400 -1403 0
1417 0
1418 0
1419 0
1420 0
1421 0
1422 0
1423 0
1424 0
639 -1403 0
-639 1403 0
-1425 1426 0
-1427 -646 1426 0
1425 1427 -1426 0
646 1425 -1426 0
643 -1426 0
-643 1426 0
-1428 1429 0
-650 -1430 1429 0
650 1428 -1429 0
1428 1430 -1429 0
646 -1429 0
-646 1429 0
-1431 1432 0
-1433 -654 1432 0
1431 1433 -1432 0
654 1431 -1432 0
650 -1432 0
-650 1432 0
-1434 1435 0
-1436 -658 1435 0
1434 1436 -1435 0
658 1434 -1435 0
654 -1435 0
-654 1435 0
-1437 1438 0
-1439 -662 1438 0
1437 1439 -1438 0
662 1437 -1438 0
658 -1438 0
-658 1438 0
-1440 1441 0
-1442 -666 1441 0
1440 1442 -1441 0
666 1440 -1441 0
662 -1441 0
-662 1441 0
-1443 1444 0
-1445 -670 1444 0
1443 1445 -1444 0
670 1443 -1444 0
666 -1444 0
-666 1444 0
-1446 1447 0
-674 -1448 1447 0
674 1446 -1447 0
1446 1448 -1447 0
670 -1447 0
-670 1447 0
1439 1449 0
1442 1449 0
1445 1449 0
1450 1449 0
1446 1449 0
-1451 0
-1452 1453 0
-1450 -1437 1453 0
-1439 -1450 -1440 1453 0
-1454 0
1449 1453 0
1439 1452 1450 -1449 -1453 0
1437 1439 1452 -1449 -1453 0
1455 0
1456 0
1457 0
1458 0
1459 0
1442 1452 1450 -1449 -1453 0
1460 0
1461 0
1462 0
1452 1450 -1449 -1453 0
1437 1452 1450 -1449 -1453 0
1440 1452 1450 -1449 -1453 0
1463 0
1464 0
1465 0
1443 1452 1450 -1449 -1453 0
1466 0
1467 0
1468 0
674 -1453 0
-674 1453 0
-1469 1470 0
-1471 -681 1470 0
1469 1471 -1470 0
681 1469 -1470 0
678 -1470 0
-678 1470 0
-1472 1473 0
-685 -1474 1473 0
685 1472 -1473 0
1472 1474 -1473 0
681 -1473 0
-681 1473 0
-1475 1476 0
-689 -1477 1476 0
689 1475 -1476 0
1475 1477 -1476 0
685 -1476 0
-685 1476 0
-1478 1479 0
-693 -1480 1479 0
693 1478 -1479 0
1478 1480 -1479 0
689 -1479 0
-689 1479 0
-1481 1482 0
-697 -1483 1482 0
697 1481 -1482 0
1481 1483 -1482 0
693 -1482 0
-693 1482 0
-1484 1485 0
-701 -1486 1485 0
701 1484 -1485 0
1484 1486 -1485 0
697 -1485 0
-697 1485 0
-1487 1488 0
-1489 -705 1488 0
1487 1489 -1488 0
705 1487 -1488 0
701 -1488 0
-701 1488 0
-1490 1491 0
-709 -1492 1491 0
709 1490 -1491 0
1490 1492 -1491 0
705 -1491 0
-705 1491 0
-1493 1494 0
-1495 -713 1494 0
1493 1495 -1494 0
713 1493 -1494 0
709 -1494 0
-709 1494 0
1489 1496 0
1497 1496 0
1486 1496 0
1492 1496 0
1493 1496 0
-1498 0
-1499 1500 0
-1497 -1484 1500 0
-1497 -1486 -1487 1500 0
-1501 0
1496 1500 0
1489 1499 1497 -1496 -1500 0
1502 0
1503 0
1504 0
1505 0
1506 0
1499 1497 -1496 -1500 0
1484 1499 1497 -1496 -1500 0
1486 1499 1497 -1496 -1500 0
1507 0
1487 1499 1497 -1496 -1500 0
1508 0
1490 1499 1497 -1496 -1500 0
1509 0
1510 0
1511 0
1512 0
1513 0
1484 1486 1499 -1496 -1500 0
1514 0
1515 0
713 -1500 0
-713 1500 0
-719 0
722 0
725 0
728 0
731 0
734 0
-737 0
-738 0
745 0
748 0
751 0
-754 0
-757 0
760 0
-763 0
-766 0
768 0
-775 0
778 0
781 0
784 0
787 0
790 0
-793 0
-796 0
-799 0
802 0
-804 0
833 0
-836 0
-839 0
-842 0
845 0
-848 0
-851 0
-854 0
857 0
860 0
-862 0
-891 0
894 0
-897 0
900 0
903 0
907 0
-910 0
913 0
916 0
919 0
922 0
925 0
928 0
-931 0
-934 0
-937 0
-940 0
943 0
946 0
-949 0
-952 0
-955 0
-957 0
-964 0
-967 0
970 0
973 0
-976 0
-979 0
-982 0
985 0
-988 0
991 0
994 0
996 0
-1025 0
1028 0
1031 0
1034 0
1037 0
-1040 0
1043 0
-1046 0
-1049 0
-1052 0
1055 0
1058 0
1061 0
1064 0
-1066 0
1095 0
1098 0
-1101 0
-1104 0
-1107 0
-1110 0
-1113 0
1116 0
1119 0
1122 0
-1125 0
1127 0
1156 0
1159 0
-1162 0
-1165 0
-1168 0
1171 0
1174 0
1178 0
1181 0
1184 0
-1187 0
1190 0
-1193 0
1196 0
1199 0
1202 0
1205 0
-1209 0
1212 0
-1215 0
-1218 0
1221 0
-1224 0
-1227 0
-1230 0
1233 0
1236 0
1238 0
-1267 0
-1270 0
1273 0
1276 0
-1279 0
-1282 0
-1285 0
1287 0
-1308 0
1311 0
1314 0
1317 0
-1320 0
1323 0
-1326 0
-1329 0
1332 0
-1335 0
-1338 0
-1340 0
-1369 0
-1372 0
-1375 0
1378 0
-1381 0
-1384 0
1387 0
-1390 0
-1393 0
-1396 0
1398 0
-1427 0
1430 0
-1433 0
-1436 0
-1439 0
-1442 0
-1445 0
1448 0
-1450 0
-1471 0
1474 0
1477 0
1480 0
1483 0
1486 0
-1489 0
1492 0
-1495 0
-1497 0
-717 0
-720 0
-723 0
-726 0
-729 0
-732 0
-735 0
-741 0
-743 0
-746 0
-749 0
-752 0
-755 0
-758 0
-761 0
-764 0
-770 0
-773 0
-776 0
-779 0
-782 0
-785 0
-788 0
-791 0
-794 0
-797 0
-800 0
-808 0
-831 0
-834 0
-837 0
-840 0
-843 0
-846 0
-849 0
-852 0
-855 0
-858 0
-866 0
-889 0
-892 0
-895 0
-898 0
-901 0
-905 0
-908 0
-911 0
-914 0
-917 0
-920 0
-923 0
-926 0
-929 0
-932 0
-935 0
-938 0
-941 0
-944 0
-947 0
-950 0
-953 0
-959 0
-962 0
-965 0
-968 0
-971 0
-974 0
-977 0
-980 0
-983 0
-986 0
-989 0
-992 0
-1000 0
-1023 0
-1026 0
-1029 0
-1032 0
-1035 0
-1038 0
-1041 0
-1044 0
1047 0
-1050 0
-1053 0
-1056 0
-1059 0
-1062 0
-1070 0
-1093 0
-1096 0
-1099 0
-1102 0
1105 0
-1108 0
-1111 0
1114 0
1117 0
1120 0
1123 0
1131 0
-1154 0
-1157 0
-1160 0
1163 0
1166 0
1169 0
1172 0
-1176 0
-1179 0
-1182 0
-1185 0
-1188 0
1191 0
1194 0
1197 0
-1200 0
1203 0
-1207 0
1210 0
1213 0
1216 0
1219 0
1222 0
-1225 0
1228 0
-1231 0
-1234 0
-1242 0
-1265 0
-1268 0
1271 0
-1274 0
-1277 0
-1280 0
-1283 0
-1289 0
-1306 0
1309 0
1312 0
-1315 0
1318 0
1321 0
-1324 0
1327 0
-1330 0
1333 0
1336 0
1344 0
-1367 0
-1370 0
-1373 0
-1376 0
1379 0
-1382 0
1385 0
1388 0
1391 0
1394 0
1402 0
-1425 0
-1428 0
-1431 0
1434 0
-1437 0
1440 0
1443 0
-1446 0
-1452 0
-1469 0
-1472 0
-1475 0
1478 0
-1481 0
-1484 0
1487 0
-1490 0
1493 0
1499 0
-1516 -1517 0
-1516 -23 0
-1516 26 0
-1516 30 0
-1516 34 0
-1516 38 0
-1516 42 0
-1516 -46 0
-1516 -50 0
-1516 54 0
-1516 57 0
-1516 61 0
-1516 -65 0
-1516 -69 0
-1516 73 0
-1516 -77 0
-1516 -81 0
-1516 85 0
-1516 -89 0
-1516 92 0
-1516 96 0
-1516 100 0
-1516 104 0
-1516 108 0
-1516 -112 0
-1516 -116 0
-1516 -120 0
124 -1516 0
-1516 -128 0
132 -1516 0
-1516 -135 0
-1516 -139 0
-1516 -143 0
-1516 147 0
-1516 -151 0
-1516 -155 0
-1516 -159 0
-1516 163 0
-1516 167 0
-1516 -171 0
-1516 -175 0
-1516 178 0
-1516 -182 0
-1516 186 0
-1516 190 0
-1516 194 0
-1516 -197 0
-1516 200 0
-1516 204 0
-1516 208 0
-1516 212 0
-1516 216 0
-1516 220 0
-1516 -223 0
-1516 -227 0
-1516 -231 0
-1516 -235 0
-1516 239 0
-1516 243 0
-1516 -247 0
-1516 -251 0
-1516 -255 0
-1516 -259 0
-1516 -263 0
-1516 -266 0
-1516 270 0
-1516 274 0
-1516 -278 0
-1516 -282 0
-1516 -286 0
-1516 290 0
-1516 -294 0
-1516 298 0
-1516 302 0
-1516 306 0
-1516 -310 0
-1516 313 0
-1516 317 0
-1516 321 0
-1516 325 0
-1516 -329 0
-1516 332 0
-1516 -336 0
-1516 -340 0
-1516 -344 0
-1516 348 0
-1516 352 0
-1516 356 0
-1516 360 0
-1516 -364 0
-1516 368 0
-1516 371 0
-1516 -375 0
-1516 -379 0
-1516 -383 0
-1516 -387 0
-1516 -391 0
-1516 395 0
-1516 399 0
-1516 403 0
-1516 -407 0
-1516 411 0
-1516 415 0
-1516 418 0
-1516 -422 0
-1516 -426 0
-1516 -430 0
-1516 434 0
-1516 438 0
-1516 442 0
-1516 445 0
-1516 449 0
-1516 -453 0
-1516 457 0
-1516 -461 0
-1516 465 0
-1516 469 0
-1516 473 0
-1516 477 0
-1516 -481 0
-1516 484 0
-1516 -488 0
-1516 -492 0
-1516 496 0
-1516 -500 0
-1516 -504 0
-1516 -508 0
-1516 512 0
-1516 516 0
-1516 520 0
-1516 -524 0
-1516 -527 0
-1516 531 0
-1516 535 0
-1516 -539 0
-1516 -543 0
-1516 -547 0
-1516 551 0
-1516 -555 0
-1516 558 0
-1516 562 0
-1516 566 0
-1516 -570 0
-1516 574 0
-1516 -578 0
-1516 -582 0
-1516 586 0
-1516 -590 0
-1516 -594 0
-1516 -598 0
-1516 -602 0
-1516 -605 0
-1516 -609 0
-1516 613 0
-1516 -617 0
-1516 -621 0
-1516 625 0
-1516 -629 0
-1516 -633 0
-1516 -637 0
-1516 641 0
-1516 -645 0
-1516 648 0
-1516 -652 0
-1516 -656 0
-1516 -660 0
-1516 -664 0
-1516 -668 0
-1516 672 0
-1516 -676 0
-1516 -680 0
-1516 683 0
-1516 687 0
-1516 691 0
-1516 695 0
-1516 699 0
-1516 -703 0
-1516 707 0
-1516 -711 0
-1516 -715 0
-1517 -23 0
-1517 -26 0
-1517 -30 0
-1517 -34 0
-1517 -38 0
-1517 -42 0
-1517 -46 0
-1517 -50 0
-1517 -54 0
-1517 -57 0
-1517 -61 0
-1517 -65 0
-1517 -69 0
-1517 -73 0
-1517 -77 0
-1517 -81 0
-1517 -85 0
-1517 -89 0
-1517 -92 0
-1517 -96 0
-1517 -100 0
-1517 -104 0
-1517 -108 0
-1517 -112 0
-1517 -116 0
-1517 -120 0
-1517 -124 0
-1517 -128 0
-1517 -132 0
-1517 -135 0
-1517 -139 0
-1517 -143 0
-1517 -147 0
-1517 -151 0
-1517 -155 0
-1517 -159 0
-1517 -163 0
-1517 -167 0
-1517 -171 0
-1517 -175 0
-1517 -178 0
-1517 -182 0
-1517 -186 0
-1517 -190 0
-1517 -194 0
-1517 -197 0
-1517 -200 0
-1517 -204 0
-1517 -208 0
-1517 -212 0
-1517 -216 0
-1517 -220 0
-1517 -223 0
-1517 -227 0
-1517 -231 0
-1517 -235 0
-1517 -239 0
-1517 -243 0
-1517 -247 0
-1517 -251 0
-1517 -255 0
-1517 -259 0
-1517 -263 0
-1517 -266 0
-1517 -270 0
-1517 -274 0
-1517 -278 0
-1517 -282 0
-1517 -286 0
-1517 -290 0
-1517 -294 0
-1517 -298 0
-1517 -302 0
-1517 -306 0
-1517 -310 0
-1517 -313 0
-1517 -317 0
-1517 -321 0
-1517 -325 0
-1517 -329 0
-1517 -332 0
-1517 -336 0
-1517 340 0
-1517 -344 0
-1517 -348 0
-1517 -352 0
-1517 -356 0
-1517 -360 0
-1517 -364 0
-1517 -368 0
-1517 -371 0
-1517 -375 0
-1517 -379 0
-1517 383 0
-1517 -387 0
-1517 -391 0
-1517 395 0
-1517 399 0
-1517 403 0
-1517 407 0
-1517 411 0
-1517 -415 0
-1517 -418 0
-1517 -422 0
-1517 426 0
-1517 430 0
-1517 434 0
-1517 438 0
-1517 -442 0
-1517 -445 0
-1517 -449 0
-1517 -453 0
-1517 -457 0
-1517 461 0
-1517 465 0
-1517 469 0
-1517 -473 0
-1517 477 0
-1517 -481 0
-1517 484 0
-1517 488 0
-1517 492 0
-1517 496 0
-1517 500 0
-1517 -504 0
-1517 508 0
-1517 -512 0
-1517 -516 0
-1517 -520 0
-1517 -524 0
-1517 -527 0
-1517 531 0
-1517 -535 0
-1517 -539 0
-1517 -543 0
-1517 -547 0
-1517 -551 0
-1517 -555 0
-1517 558 0
-1517 562 0
-1517 -566 0
-1517 570 0
-1517 574 0
-1517 -578 0
-1517 582 0
-1517 -586 0
-1517 590 0
-1517 594 0
-1517 598 0
-1517 -602 0
-1517 -605 0
-1517 -609 0
-1517 -613 0
-1517 617 0
-1517 -621 0
-1517 625 0
-1517 629 0
-1517 633 0
-1517 637 0
-1517 641 0
-1517 -645 0
-1517 -648 0
-1517 -652 0
-1517 656 0
-1517 -660 0
-1517 664 0
-1517 668 0
-1517 -672 0
-1517 -676 0
-1517 -680 0
-1517 -683 0
-1517 -687 0
-1517 691 0
-1517 -695 0
-1517 -699 0
-1517 703 0
-1517 -707 0
-1517 711 0
-1517 715 0
1516 1517 0
-1518 0
-1519 0
-1520 0
-1521 0
-1522 0
-1523 0
-1524 0
-1525 0
